25107,
25107,
22524,
22524,
22524,
22114,
22059,
21458,
20753,
20412,
20375,
19765,
18910,
18805,
18647,
17826,
17826,
17225,
17155,
16955,
16470,
16470,
16470,
16148,
16148,
15815,
15563,
15011,
14781,
14647,
14403,
14259,
13875,
13665,
13598,
13513,
13294,
13204,
13024,
12891,
12676,
12648,
12557,
12485,
12407,
12276,
12161,
11741,
11602,
11462,
11422,
11390,
11380,
11169,
11169,
11169,
11169,
11116,
10987,
10913,
10844,
10748,
10748,
10748,
10664,
10664,
10664,
10664,
10598,
10598,
10598,
10598,
10598,
10595,
10528,
10415,
10415,
10415,
10415,
10415,
10336,
10336,
10308,
10308,
10308,
10268,
10268,
10247,
10143,
10143,
10143,
10143,
10143,
10143,
10105,
10105,
10078,
10078,
9870,
9870,
9841,
9841,
9795,
9795,
9795,
9746,
9731,
9713,
9704,
9686,
9686,
9681,
9390,
9390,
9390,
9334,
9328,
9328,
9280,
9280,
9267,
9267,
9264,
9256,
9243,
9243,
9234,
9226,
9218,
9189,
9189,
9189,
9189,
9189,
9181,
9181,
9181,
9181,
9181,
9181,
9181,
9181,
9181,
9123,
9123,
9123,
9123,
9123,
9123,
9123,
9123,
9123,
9123,
9093,
9066,
9066,
9066,
9066,
9060,
9060,
9060,
9060,
9060,
9060,
9060,
9060,
9060,
9060,
9060,
9060,
9060,
9044,
9044,
9044,
9044,
9044,
9044,
9044,
9044,
9044,
9044,
9044,
9044,
9044,
9044,
9044,
9044,
9044,
9044,
9044,
9044,
9044,
9044,
9044,
9044,
9044,
9044,
9044,
9044,
9044,
9044,
9044,
9044,
9044,
9044,
9044,
9044,
9044,
9044,
9044,
9044,
9044,
9044,
9044,
9044,
9044,
9044,
9044,
9044,
9044,
9044,
9044,
9044,
9044,
9044,
9044,
9044,
9044,
9044,
9044,
9044,
9044,
9044,
9044,
9044,
9044,
8905,
8905,
8905,
8905,
8905,
8905,
8905,
8905,
8905,
8905,
8905,
8905,
8905,
8905,
8905,
8905,
8905,
8905,
8905,
8905,
8905,
8905,
8905,
8905,
8905,
8905,
8905,
8905,
8905,
8905,
8905,
8905,
8905,
8905,
8905,
8905,
8905,
8905,
8905,
8905,
8905,
8905,
8905,
8905,
8905,
8905,
8905,
8905,
8905,
8905,
8905,
8905,
8905,
8905,
8905,
8905,
8905,
8905,
8905,
8905,
8905,
8905,
8905,
8905,
8905,
8905,
8905,
8905,
8905,
8905,
8905,
8905,
8905,
8905,
8905,
8905,
8905,
8905,
8905,
8905,
8905,
8905,
8905,
8905,
8905,
8905,
8905,
8905,
8905,
8905,
8905,
8905,
8905,
8905,
8905,
8905,
8905,
8905,
8905,
8905,
8905,
8905,
8905,
8905,
8905,
8905,
8905,
8905,
8905,
8905,
8905,
8905,
8905,
8905,
8905,
8905,
8905,
8905,
8905,
8905,
8905,
8905,
8905,
8905,
8905,
8905,
8905,
8905,
8905,
8905,
8905,
8905,
8905,
8905,
8905,
8905,
8905,
8905,
8905,
8905,
8905,
8905,
8905,
8905,
8905,
8905,
8905,
8905,
8905,
8905,
8905,
8905,
8905,
8905,
8905,
8905,
8905,
8905,
8905,
8905,
8905,
8905,
8905,
8905,
8905,
8905,
8905,
8905,
8905,
8905,
8905,
8905,
8905,
8905,
8905,
8905,
8905,
8905,
8905,
8905,
8905,
8905,
8905,
8905,
8905,
8905,
8905,
8905,
8905,
8905,
8905,
8905,
8905,
8905,
8905,
8905,
8905,
8905,
8905,
8905,
8905,
8905,
8905,
8905,
8905,
8905,
8905,
8905,
8905,
8905,
8905,
8905,
8905,
8905,
8905,
8905,
8905,
8905,
8905,
8905,
8905,
8905,
8905,
8905,
8905,
8905,
8905,
8905,
8905,
8905,
8905,
8905,
8905,
8905,
8905,
8905,
8905,
8905,
8905,
8905,
8905,
8905,
8905,
8905,
8905,
8905,
8905,
8905,
8905,
8905,
8905,
8905,
8905,
8905,
8905,
8905,
8905,
8905,
8905,
8905,
8905,
8905,
8905,
8905,
8905,
8905,
8905,
8905,
8905,
8905,
8905,
8905,
8905,
8905,
8905,
8905,
8905,
8905,
8905,
8905,
8905,
8905,
8905,
8905,
8905,
8905,
8905,
8905,
8905,
8905,
8905,
8905,
8905,
8905,
8905,
8905,
8905,
8905,
8905,
8905,
8905,
8905,
8905,
8905,
8905,
8905,
8905,
8905,
8905,
8905,
8905,
8905,
8905,
8905,
8905,
8905,
8905,
8905,
8905,
8905,
8905,
8905,
8905,
8905,
8905,
8905,
8905,
8905,
8905,
8905,
8905,
8905,
8905,
8905,
8905,
8905,
8905,
8905,
8905,
8905,
8905,
8905,
8905,
8905,
8905,
8905,
8905,
8905,
8905,
8905,
8905,
8905,
8905,
8905,
8905,
8905,
8905,
8905,
8905,
8905,
8905,
8905,
8905,
8905,
8905,
8905,
8905,
8905,
8905,
8905,
8905,
8905,
8905,
8905,
8905,
8905,
8905,
8905,
8905,
8905,
8905,
8905,
8905,
8905,
8905,
8905,
8905,
8905,
8905,
8905,
8905,
8905,
8905,
8905,
8905,
8905,
8905,
8905,
8905,
8905,
8905,
8905,
8905,
8905,
8905,
8905,
8905,
8905,
8905,
8905,
8905,
8905,
8905,
8905,
8905,
8905,
8905,
8905,
8905,
8905,
8905,
8905,
8905,
8905,
8905,
8905,
8905,
8905,
8905,
8905,
8905,
8905,
8905,
8905,
8905,
8905,
8905,
8905,
8905,
8905,
8905,
8905,
8905,
8905,
8905,
8905,
8905,
8905,
8905,
8905,
8905,
8905,
8905,
8905,
8905,
8905,
8905,
8905,
8905,
8905,
8905,
8905,
8905,
8905,
8905,
8905,
8905,
8905,
8905,
8905,
8905,
8905,
8905,
8905,
8905,
8905,
8905,
8905,
8905,
8905,
8905,
8905,
8905,
8905,
8905,
8905,
8905,
8905,
8905,
8905,
8905,
8905,
8905,
8905,
8905,
8905,
8905,
8905,
8905,
8905,
8905,
8905,
8905,
8905,
8905,
8905,
8905,
8905,
8905,
8905,
8905,
8905,
8905,
8905,
8905,
8905,
8905,
8905,
8905,
8905,
8905,
8905,
8905,
8905,
8905,
8905,
8905,
8905,
8905,
8905,
8905,
8905,
8905,
8905,
8905,
8905,
8905,
8905,
8905,
8905,
8905,
8905,
8905,
8905,
8905,
8905,
8905,
8905,
8905,
8905,
8905,
8905,
8905,
8905,
8905,
8905,
8905,
8905,
8905,
8905,
8905,
8905,
8905,
8905,
8905,
8905,
8905,
8905,
8905,
8905,
8905,
8905,
8905,
8905,
8905,
8905,
8905,
8905,
8905,
8905,
8905,
8905,
8905,
8905,
8905,
8905,
8905,
8905,
8905,
8905,
8905,
8905,
8905,
8905,
8905,
8905,
8905,
8905,
8905,
8905,
8905,
8905,
8905,
8905,
8905,
8905,
8905,
8905,
8905,
8905,
8905,
8905,
8905,
8905,
8905,
8905,
8905,
8905,
8905,
8905,
8905,
8905,
8905,
8905,
8905,
8905,
8905,
8905,
8905,
8905,
8905,
8905,
8905,
8905,
8905,
8905,
8905,
8905,
8905,
8905,
8905,
8905,
8905,
8905,
8905,
8905,
8905,
8905,
8905,
8905,
8905,
8905,
8905,
8905,
8905,
8905,
8905,
8905,
8905,
8905,
8905,
8905,
8905,
8905,
8905,
8905,
8905,
8905,
8905,
8905,
8905,
8905,
8905,
8905,
8905,
8905,
8905,
8905,
8905,
8905,
8905,
8905,
8905,
8905,
8905,
8905,
8905,
8905,
8905,
8905,
8905,
8905,
8905,
8905,
8905,
8905,
8905,
8905,
8905,
8905,
8905,
8905,
8905,
8905,
8905,
8905,
8905,
8905,
8905,
8905,
8905,
8905,
8905,
8905,
8905,
8905,
8905,
8905,
8905,
8905,
8905,
8905,
8905,
8905,
8905,
8905,
8905,
8905,
8905,
8905,
8905,
8905,
8905,
8905,
8905,
8905,
8905,
8905,
8905,
8905,
8905,
8905,
8905,
8905,
8905,
8905,
8905,
8905,
8905,
8905,
8905,
8905,
8905,
8905,
8905,
8905,
8905,
8905,
8905,
8905,
8905,
8905,
8905,
8905,
8905,
8905,
8905,
8905,
8905,
8905,
8905,
8905,
8905,
8905,
8905,
8905,
8905,
8905,
8905,
8905,
8905,
8905,
8905,
8905,
8905,
8905,
8905,
8905,
8905,
8905,
8905,
8905,
8905,
8905,
8905,
8905,
8905,
8905,
8905,
8905,
8905,
8905,
8905,
8905,
8905,
8905,
8905,
8905,
8905,
8905,
8905,
8905,
8905,
8905,
8905,
8905,
8905,
8905,
8905,
8905,
8905,
8905,
8905,
8905,
8905,
8905,
8905,
8905,
8905,
8905,
8905,
8905,
8905,
8905,
8905,
8905,
8905,
8905,
8905,
8905,
8905,
8905,
8905,
8905,
8905,
8905,
8905,
8905,
8905,
8905,
8905,
8905,
8905,
8905,
8905,
8905,
8905,
8905,
8905,
8905,
8905,
8905,
8905,
8905,
8905,
8905,
8905,
8905,
8905,
8905,
8905,
8905,
8905,
8905,
8905,
8905,
8905,
8905,
8905,
8905,
8905,
8905,
8905,
8905,
8905,
8905,
8905,
8905,
8905,
8905,
8905,
8905,
8905,
8905,
8905,
8905,
8905,
8905,
8905,
8905,
8905,
8905,
8905,
8905,
8905,
8905,
8905,
8905,
8905,
8905,
8905,
8905,
8905,
8905,
8905,
8905,
8905,
8905,
8905,
8905,
8905,
8905,
8905,
8905,
8905,
8905,
8905,
8905,
8905,
8905,
8905,
8905,
8905,
8905,
8905,
8905,
8905,
8905,
8905,
8905,
8905,
8905,
8905,
8905,
8905,
8905,
8905,
8905,
8905,
8905,
8905,
8905,
8905,
8905,
8905,
8905,
8905,
8905,
8905,
8905,
8905,
8905,
8905,
8905,
8905,
8905,
8905,
8905,
8905,
8905,
8905,
8905,
8905,
8905,
8905,
8905,
8905,
8905,
8905,
8905,
8905,
8905,
8905,
8905,
8905,
8905,
8905,
8905,
8905,
8905,
8905,
8905,
8905,
8905,
8905,
8905,
8905,
8905,
8905,
8905,
8905,
8905,
8905,
8905,
8905,
8905,
8905,
8905,
8905,
8905,
8905,
8905,
8905,
8905,
8905,
8905,
8905,
8905,
8905,
8905,
8905,
8905,
8905,
8905,
8905,
8905,
8905,
8905,
8905,
8905,
8905,
8905,
8905,
8905,
8905,
8905,
8905,
8905,
8905,
8905,
8905,
8905,
8905,
8905,
8905,
8905,
8905,
8905,
8905,
8905,
8905,
8905,
8905,
8905,
8905,
8905,
8905,
8905,
8905,
8905,
8905,
8905,
8905,
8905,
8905,
8905,
8905,
8905,
8905,
8905,
8905,
8905,
8905,
8905,
8905,
8905,
8905,
8905,
8905,
8905,
8905,
8905,
8905,
8905,
8905,
8905,
8905,
8905,
8905,
8905,
8905,
8905,
8905,
8905,
8905,
8905,
8905,
8905,
8905,
8905,
8905,
8905,
8905,
8905,
8905,
8905,
8905,
8905,
8905,
8905,
8905,
8905,
8905,
8905,
8905,
8905,
8905,
8905,
8905,
8905,
8905,
8905,
8905,
8905,
8905,
8905,
8905,
8905,
8905,
8905,
8905,
8905,
8905,
8905,
8905,
8905,
8905,
8905,
8905,
8905,
8905,
8905,
8905,
8905,
8905,
8905,
8905,
8905,
8905,
8905,
8905,
8905,
8905,
8905,
8905,
8905,
8905,
8905,
8905,
8905,
8905,
8905,
8905,
8905,
8905,
8905,
8905,
8905,
8905,
8905,
8905,
8905,
8905,
8905,
8905,
8905,
8905,
8905,
8905,
8905,
8905,
8905,
8905,
8905,
8905,
8905,
8905,
8905,
8905,
8905,
8905,
8905,
8905,
8905,
8905,
8905,
8905,
8905,
8905,
8905,
8905,
8905,
8905,
8905,
8905,
8905,
8905,
8905,
8905,
8905,
8905,
8905,
8905,
8905,
8905,
8905,
8905,
8905,
8905,
8905,
8905,
8905,
8905,
8905,
8905,
8905,
8905,
8905,
8905,
8905,
8905,
8905,
8905,
8905,
8905,
8905,
8905,
8905,
8905,
8905,
8905,
8905,
8905,
8905,
8905,
8905,
8905,
8905,
8905,
8905,
8905,
8905,
8905,
8905,
8905,
8905,
8905,
8905,
8905,
8905,
8905,
8905,
8905,
8905,
8905,
1,
